Clp0006I 0  Obj 0 Primal inf 1999.9998 (2000) Dual inf 27523262 (1000000)
Clp0006I 200  Obj -22085241 Primal inf 1607956 (2000)
Clp0006I 400  Obj -16595069 Primal inf 1213872 (2000)
Clp0006I 600  Obj -11106569 Primal inf 820596 (2000)
Clp0006I 800  Obj -5613551 Primal inf 431560 (2000)
Clp0006I 1000  Obj -126749 Primal inf 67446 (1999)
Clp0006I 1200  Obj -56896 Primal inf 63589 (1992)
Clp0006I 1299  Obj -56896 Primal inf 71994 (1992)
Clp0006I 1420  Obj -56896 Primal inf 120184 (1990)
Clp0006I 1523  Obj -56896 Primal inf 380763 (1989)
Clp0006I 1624  Obj -56896 Primal inf 256351 (1990)
Clp0006I 1767  Obj -56896 Primal inf 329133 (1993)
Clp0006I 1894  Obj -56896 Primal inf 228902 (1992)
Clp0006I 2031  Obj -56896 Primal inf 191383 (1993)
Clp0006I 2179  Obj -56896 Primal inf 286669 (1991)
Clp0006I 2340  Obj -56896 Primal inf 409563 (1990)
Clp0006I 2473  Obj -56896 Primal inf 274160 (1988)
Clp0006I 2625  Obj -56896 Primal inf 292776 (1987)
Clp0006I 2777  Obj -56896 Primal inf 284249 (1985)
Clp0006I 2919  Obj -56896 Primal inf 348337 (1987)
Clp0006I 3057  Obj -56896 Primal inf 424539 (1987)
Clp0006I 3190  Obj -56896 Primal inf 329091 (1987)
Clp0006I 3327  Obj -56896 Primal inf 259712 (1986)
Clp0006I 3472  Obj -56896 Primal inf 304553 (1985)
Clp0006I 3633  Obj -56896 Primal inf 377675 (1985)
Clp0006I 3783  Obj -56896 Primal inf 265180 (1986)
Clp0006I 3937  Obj -56896 Primal inf 211094 (1988)
Clp0006I 4094  Obj -56896 Primal inf 301801 (1985)
Clp0006I 4234  Obj -56896 Primal inf 299365 (1986)
Clp0006I 4379  Obj -56896 Primal inf 251023 (1987)
Clp0006I 4531  Obj -56896 Primal inf 210807 (1987)
Clp0006I 4690  Obj -56896 Primal inf 264463 (1990)
Clp0006I 4849  Obj -56896 Primal inf 267426 (1984)
Clp0006I 5003  Obj -56896 Primal inf 304965 (1984)
Clp0006I 5152  Obj -56896 Primal inf 301039 (1985)
Clp0006I 5322  Obj -56896 Primal inf 302961 (1983)
Clp0006I 5466  Obj -56896 Primal inf 235203 (1983)
Clp0006I 5614  Obj -56896 Primal inf 332812 (1986)
Clp0006I 5776  Obj -56896 Primal inf 241360 (1986)
Clp0006I 5929  Obj -56896 Primal inf 272687 (1986)
Clp0006I 6103  Obj -56896 Primal inf 370938 (1982)
Clp0006I 6247  Obj -56896 Primal inf 480928 (1981)
Clp0006I 6381  Obj -56896 Primal inf 394899 (1979)
Clp0006I 6526  Obj -56896 Primal inf 271409 (1978)
Clp0006I 6680  Obj -56896 Primal inf 285173 (1976)
Clp0006I 6831  Obj -56896 Primal inf 322160 (1976)
Clp0006I 6990  Obj -56896 Primal inf 354301 (1980)
Clp0006I 7131  Obj -56896 Primal inf 305335 (1982)
Clp0006I 7288  Obj -56896 Primal inf 296391 (1985)
Clp0006I 7422  Obj -56896 Primal inf 218142 (1984)
Clp0006I 7574  Obj -56896 Primal inf 321669 (1984)
Clp0006I 7717  Obj -56896 Primal inf 228002 (1985)

TIME LIMIT REACHED!
real 1m24,050s user 1m23,381s sys 0m0,563s
